
n_res = 8;
rcap = [22, 21, 24, 22, 676, 613, 738, 656];
rtype = [1, 1, 1, 1, 2, 2, 2, 2];
n_tasks = 50;
modes =  [{1, 2, 3, 4, 5, 6}, {7, 8, 9, 10, 11, 12}, {13, 14, 15, 16, 17, 18}, {19, 20, 21, 22, 23, 24}, {25, 26, 27, 28, 29, 30}, {31, 32, 33, 34, 35, 36}, {37, 38, 39, 40, 41, 42}, {43, 44, 45, 46, 47, 48}, {49, 50, 51, 52, 53, 54}, {55, 56, 57, 58, 59, 60}, {61, 62, 63, 64, 65, 66}, {67, 68, 69, 70, 71, 72}, {73, 74, 75, 76, 77, 78}, {79, 80, 81, 82, 83, 84}, {85, 86, 87, 88, 89, 90}, {91, 92, 93, 94, 95, 96}, {97, 98, 99, 100, 101, 102}, {103, 104, 105, 106, 107, 108}, {109, 110, 111, 112, 113, 114}, {115, 116, 117, 118, 119, 120}, {121, 122, 123, 124, 125, 126}, {127, 128, 129, 130, 131, 132}, {133, 134, 135, 136, 137, 138}, {139, 140, 141, 142, 143, 144}, {145, 146, 147, 148, 149, 150}, {151, 152, 153, 154, 155, 156}, {157, 158, 159, 160, 161, 162}, {163, 164, 165, 166, 167, 168}, {169, 170, 171, 172, 173, 174}, {175, 176, 177, 178, 179, 180}, {181, 182, 183, 184, 185, 186}, {187, 188, 189, 190, 191, 192}, {193, 194, 195, 196, 197, 198}, {199, 200, 201, 202, 203, 204}, {205, 206, 207, 208, 209, 210}, {211, 212, 213, 214, 215, 216}, {217, 218, 219, 220, 221, 222}, {223, 224, 225, 226, 227, 228}, {229, 230, 231, 232, 233, 234}, {235, 236, 237, 238, 239, 240}, {241, 242, 243, 244, 245, 246}, {247, 248, 249, 250, 251, 252}, {253, 254, 255, 256, 257, 258}, {259, 260, 261, 262, 263, 264}, {265, 266, 267, 268, 269, 270}, {271, 272, 273, 274, 275, 276}, {277, 278, 279, 280, 281, 282}, {283, 284, 285, 286, 287, 288}, {289, 290, 291, 292, 293, 294}, {295, 296, 297, 298, 299, 300}];
succ =  [{25, 24, 21, 20, 19, 15, 10}, {27, 24, 21, 20, 19, 15, 10}, {24, 21, 19, 16, 15, 10}, {24, 19, 17, 9}, {50, 28, 27, 25, 23, 22, 21, 20, 15}, {33, 25, 24, 23, 22, 21, 20, 19}, {24, 21, 20, 15, 10}, {50, 28, 25, 23, 22, 21, 15}, {50, 32, 28, 22, 21, 20, 15}, {50, 49, 37, 36, 33, 32, 31, 28, 26, 23, 22}, {20, 19, 15}, {50, 33, 30, 24, 21, 20}, {33, 32, 28, 27, 23, 22, 18}, {50, 49, 33, 31, 27, 26, 22}, {49, 47, 46, 37, 36, 33, 31, 30, 29}, {50, 49, 43, 36, 30, 29, 26}, {49, 37, 33, 20}, {49, 47, 46, 43, 36, 30, 29}, {50, 48, 47, 46, 44, 42, 32, 28}, {47, 46, 44, 43, 41, 31, 29}, {49, 45, 44, 43, 36, 31, 26}, {46, 43, 30, 29}, {46, 45, 43, 40, 35, 30}, {49, 47, 43, 41, 38, 37, 34}, {49, 45, 44, 40, 36, 32}, {47, 46, 42, 41, 40, 38, 35}, {48, 45, 40, 39, 38, 36}, {43, 41, 40, 38, 34}, {48, 45, 38, 34}, {44, 42, 41, 38}, {42, 40, 38}, {43, 41, 38}, {43, 40}, {35}, {39}, {42}, {40}, {}, {}, {}, {}, {}, {}, {}, {}, {}, {}, {}, {}, {}];
n_opt = 300;
dur = [5, 11, 18, 27, 28, 30, 4, 5, 9, 11, 19, 29, 13, 15, 16, 23, 25, 29, 3, 5, 19, 24, 25, 28, 4, 5, 6, 14, 24, 27, 4, 5, 9, 20, 25, 26, 4, 11, 21, 25, 27, 28, 16, 18, 24, 27, 28, 29, 4, 5, 8, 14, 26, 29, 4, 15, 17, 19, 21, 26, 3, 8, 11, 22, 23, 27, 1, 4, 6, 13, 18, 22, 4, 7, 23, 27, 29, 30, 2, 3, 4, 6, 17, 22, 10, 15, 17, 19, 21, 23, 8, 12, 16, 19, 28, 29, 4, 11, 15, 16, 18, 25, 6, 9, 10, 14, 21, 25, 2, 6, 10, 22, 27, 28, 5, 12, 13, 17, 28, 30, 2, 9, 19, 20, 21, 22, 2, 6, 11, 17, 23, 27, 3, 11, 12, 14, 22, 27, 1, 8, 17, 18, 23, 24, 4, 5, 8, 15, 16, 28, 8, 13, 15, 24, 25, 26, 4, 8, 9, 16, 17, 30, 3, 10, 11, 12, 22, 30, 10, 14, 19, 26, 28, 30, 5, 12, 14, 19, 25, 29, 7, 13, 14, 20, 29, 30, 6, 10, 11, 15, 26, 27, 19, 20, 22, 23, 28, 29, 1, 8, 18, 22, 24, 27, 6, 8, 9, 12, 24, 26, 4, 13, 27, 28, 29, 30, 9, 10, 11, 16, 20, 28, 1, 2, 8, 11, 25, 28, 10, 19, 22, 24, 27, 28, 4, 16, 18, 24, 27, 28, 4, 10, 11, 19, 21, 25, 2, 8, 16, 23, 24, 27, 7, 18, 20, 25, 28, 29, 5, 9, 11, 16, 18, 26, 5, 7, 12, 23, 26, 27, 1, 8, 12, 24, 25, 27, 10, 11, 18, 21, 22, 28, 6, 9, 11, 14, 15, 17, 1, 2, 6, 11, 19, 28, 2, 14, 21, 23, 24, 25];
rreq = [|4, 3, 3, 3, 3, 3, 4, 3, 3, 3, 2, 2, 3, 3, 3, 3, 3, 3, 5, 3, 3, 2, 1, 1, 2, 2, 2, 2, 1, 1, 3, 2, 2, 2, 1, 1, 1, 1, 1, 1, 1, 1, 4, 3, 3, 3, 1, 1, 5, 4, 4, 4, 4, 4, 1, 1, 1, 1, 1, 1, 5, 4, 4, 4, 4, 4, 2, 2, 2, 2, 1, 1, 3, 3, 3, 3, 3, 3, 4, 4, 4, 4, 3, 3, 2, 1, 1, 1, 1, 1, 4, 3, 2, 2, 2, 1, 3, 3, 3, 2, 2, 2, 5, 4, 4, 4, 3, 3, 4, 3, 2, 2, 1, 1, 4, 4, 4, 3, 3, 2, 5, 3, 3, 2, 2, 1, 3, 3, 3, 3, 3, 3, 4, 4, 3, 2, 2, 1, 5, 4, 3, 3, 2, 1, 5, 4, 4, 3, 2, 2, 2, 2, 2, 2, 2, 2, 5, 4, 4, 3, 3, 2, 4, 3, 3, 3, 3, 3, 4, 4, 4, 4, 4, 4, 4, 3, 3, 3, 3, 3, 2, 2, 2, 2, 2, 2, 4, 4, 4, 3, 3, 2, 3, 3, 3, 2, 2, 2, 3, 2, 2, 2, 2, 2, 4, 4, 4, 3, 3, 3, 5, 5, 5, 5, 5, 5, 4, 4, 4, 4, 3, 3, 4, 3, 2, 2, 2, 1, 4, 4, 4, 4, 4, 4, 4, 4, 4, 4, 4, 4, 3, 2, 2, 2, 2, 2, 2, 1, 1, 1, 1, 1, 4, 3, 3, 2, 2, 2, 4, 3, 3, 2, 2, 2, 3, 3, 3, 3, 2, 2, 4, 4, 4, 4, 3, 3, 4, 4, 3, 2, 1, 1, 2, 1, 1, 1, 1, 1, 4, 3, 3, 2, 1, 1, 3, 2, 2, 2, 1, 1
 |4, 4, 4, 4, 3, 3, 3, 3, 2, 2, 1, 1, 5, 4, 4, 4, 4, 4, 2, 2, 2, 2, 2, 2, 4, 4, 4, 4, 4, 4, 2, 2, 2, 2, 2, 2, 1, 1, 1, 1, 1, 1, 4, 3, 3, 2, 1, 1, 5, 4, 3, 3, 3, 2, 3, 3, 3, 3, 2, 2, 4, 4, 3, 2, 1, 1, 3, 3, 3, 3, 3, 3, 4, 3, 3, 3, 3, 3, 1, 1, 1, 1, 1, 1, 5, 3, 3, 2, 2, 1, 5, 4, 4, 4, 4, 4, 5, 4, 4, 4, 3, 3, 3, 3, 3, 3, 2, 2, 5, 4, 4, 3, 3, 3, 3, 3, 3, 3, 3, 3, 5, 4, 4, 4, 3, 3, 1, 1, 1, 1, 1, 1, 4, 3, 3, 2, 2, 2, 1, 1, 1, 1, 1, 1, 2, 1, 1, 1, 1, 1, 4, 4, 3, 3, 3, 2, 3, 2, 2, 2, 1, 1, 4, 3, 3, 2, 2, 2, 3, 3, 3, 2, 1, 1, 5, 3, 3, 2, 2, 1, 4, 4, 4, 4, 4, 4, 4, 3, 3, 2, 2, 2, 4, 4, 4, 4, 4, 4, 2, 1, 1, 1, 1, 1, 3, 3, 3, 3, 3, 3, 3, 3, 3, 3, 3, 3, 1, 1, 1, 1, 1, 1, 3, 3, 2, 2, 2, 1, 4, 4, 4, 4, 4, 4, 4, 4, 3, 2, 1, 1, 4, 4, 3, 3, 2, 2, 5, 4, 4, 4, 4, 4, 4, 4, 4, 4, 3, 3, 2, 2, 2, 2, 2, 2, 3, 2, 2, 2, 2, 2, 3, 3, 3, 3, 3, 3, 1, 1, 1, 1, 1, 1, 5, 4, 3, 3, 3, 2, 2, 2, 2, 2, 2, 2, 2, 2, 2, 2, 1, 1
 |5, 4, 4, 3, 3, 3, 4, 4, 4, 4, 4, 4, 4, 4, 4, 4, 4, 4, 1, 1, 1, 1, 1, 1, 3, 2, 2, 2, 1, 1, 2, 2, 2, 2, 2, 2, 5, 4, 4, 4, 4, 4, 2, 2, 2, 2, 2, 2, 2, 1, 1, 1, 1, 1, 3, 2, 2, 1, 1, 1, 5, 5, 5, 5, 5, 5, 4, 4, 4, 4, 4, 4, 4, 4, 4, 4, 4, 4, 4, 4, 4, 4, 4, 4, 4, 4, 4, 4, 3, 3, 4, 4, 4, 4, 4, 4, 5, 5, 5, 5, 5, 5, 4, 3, 3, 2, 1, 1, 4, 3, 3, 3, 3, 3, 1, 1, 1, 1, 1, 1, 4, 4, 4, 4, 4, 4, 5, 4, 3, 3, 1, 1, 4, 4, 4, 4, 4, 4, 2, 2, 2, 2, 2, 2, 5, 4, 3, 3, 2, 1, 1, 1, 1, 1, 1, 1, 4, 4, 3, 2, 1, 1, 4, 4, 4, 3, 2, 2, 4, 3, 3, 2, 2, 1, 5, 4, 4, 4, 3, 3, 2, 2, 2, 2, 1, 1, 3, 3, 3, 3, 3, 3, 3, 3, 3, 2, 1, 1, 3, 2, 2, 2, 2, 2, 5, 4, 4, 3, 2, 2, 4, 3, 3, 2, 2, 1, 4, 3, 3, 3, 3, 3, 4, 4, 3, 3, 1, 1, 5, 3, 3, 2, 1, 1, 4, 3, 3, 3, 2, 2, 3, 2, 2, 2, 2, 2, 5, 5, 5, 5, 5, 5, 5, 5, 5, 5, 5, 5, 2, 2, 2, 2, 1, 1, 3, 3, 3, 2, 2, 2, 2, 2, 2, 2, 2, 2, 2, 2, 2, 1, 1, 1, 3, 2, 2, 2, 1, 1, 2, 2, 2, 2, 2, 2, 5, 4, 4, 4, 4, 4
 |3, 2, 2, 2, 2, 2, 1, 1, 1, 1, 1, 1, 3, 3, 3, 3, 2, 2, 4, 4, 3, 3, 3, 2, 5, 5, 5, 5, 5, 5, 3, 3, 2, 2, 2, 1, 1, 1, 1, 1, 1, 1, 4, 3, 3, 3, 3, 3, 5, 4, 3, 3, 2, 2, 2, 2, 2, 2, 1, 1, 3, 3, 3, 3, 3, 3, 5, 4, 4, 4, 4, 4, 4, 3, 3, 2, 1, 1, 4, 3, 3, 2, 2, 1, 4, 3, 3, 3, 2, 2, 3, 2, 2, 2, 1, 1, 3, 3, 3, 3, 3, 3, 2, 2, 2, 2, 2, 2, 4, 4, 4, 4, 4, 4, 4, 4, 4, 4, 4, 4, 2, 2, 2, 1, 1, 1, 4, 4, 3, 3, 2, 2, 3, 3, 2, 2, 2, 1, 2, 2, 2, 2, 2, 2, 2, 2, 2, 2, 2, 2, 4, 3, 3, 2, 1, 1, 4, 4, 4, 3, 3, 3, 5, 4, 4, 3, 3, 3, 4, 3, 2, 2, 1, 1, 4, 4, 3, 3, 1, 1, 2, 1, 1, 1, 1, 1, 5, 4, 4, 3, 3, 3, 4, 3, 3, 2, 1, 1, 2, 1, 1, 1, 1, 1, 2, 2, 2, 2, 2, 2, 5, 4, 4, 3, 3, 3, 2, 2, 2, 2, 2, 2, 5, 5, 5, 5, 5, 5, 4, 4, 3, 2, 1, 1, 4, 4, 4, 4, 3, 3, 3, 2, 2, 1, 1, 1, 4, 4, 3, 2, 1, 1, 4, 4, 4, 4, 3, 3, 5, 3, 3, 3, 1, 1, 3, 3, 3, 2, 2, 2, 3, 2, 2, 2, 2, 2, 5, 4, 3, 2, 2, 1, 3, 3, 3, 3, 3, 3, 2, 2, 2, 2, 2, 2, 4, 3, 3, 3, 3, 3
 |14, 13, 13, 13, 13, 13, 9, 9, 9, 8, 8, 7, 11, 9, 7, 7, 6, 5, 22, 20, 19, 18, 18, 17, 29, 28, 26, 24, 22, 20, 28, 24, 21, 20, 17, 16, 24, 23, 23, 23, 23, 23, 28, 28, 28, 27, 27, 26, 27, 23, 17, 14, 14, 9, 28, 23, 18, 17, 12, 8, 18, 17, 12, 12, 7, 4, 30, 28, 26, 25, 23, 22, 27, 26, 25, 22, 22, 20, 15, 11, 11, 9, 5, 4, 19, 16, 15, 15, 13, 12, 13, 12, 11, 10, 8, 8, 13, 11, 11, 9, 9, 8, 17, 15, 15, 14, 13, 12, 19, 18, 18, 18, 18, 18, 13, 12, 9, 8, 6, 5, 27, 26, 26, 26, 26, 26, 24, 21, 19, 19, 16, 16, 17, 15, 15, 15, 13, 13, 24, 21, 18, 13, 11, 6, 19, 18, 16, 12, 11, 7, 25, 25, 25, 25, 25, 25, 28, 24, 21, 19, 17, 16, 19, 15, 14, 13, 11, 9, 27, 26, 24, 23, 22, 22, 23, 21, 20, 19, 18, 18, 28, 28, 27, 25, 24, 24, 10, 9, 8, 8, 5, 5, 9, 8, 7, 7, 5, 5, 6, 4, 3, 3, 2, 1, 25, 25, 25, 24, 24, 24, 6, 5, 4, 3, 2, 1, 7, 7, 7, 7, 7, 7, 22, 18, 13, 12, 7, 4, 22, 21, 18, 17, 13, 13, 18, 17, 16, 15, 14, 14, 23, 23, 23, 22, 22, 22, 6, 5, 4, 4, 3, 3, 2, 1, 1, 1, 1, 1, 18, 15, 13, 8, 6, 2, 12, 12, 12, 12, 12, 12, 21, 20, 18, 14, 13, 12, 26, 22, 20, 17, 15, 13, 5, 5, 4, 4, 3, 3, 19, 19, 15, 11, 9, 4, 15, 13, 10, 7, 5, 5
 |26, 24, 17, 14, 11, 9, 26, 24, 23, 23, 21, 20, 13, 11, 11, 11, 9, 9, 29, 29, 29, 29, 28, 28, 29, 27, 26, 24, 24, 21, 26, 18, 17, 14, 5, 5, 25, 23, 15, 14, 6, 3, 3, 3, 3, 2, 1, 1, 12, 11, 10, 9, 8, 7, 19, 17, 15, 15, 12, 9, 14, 12, 9, 7, 4, 2, 27, 26, 26, 26, 25, 25, 6, 5, 4, 4, 3, 2, 24, 22, 18, 14, 13, 7, 22, 20, 18, 12, 12, 8, 9, 9, 8, 7, 6, 5, 6, 6, 6, 6, 6, 6, 27, 27, 25, 24, 20, 19, 30, 24, 24, 21, 18, 12, 26, 24, 22, 19, 16, 12, 5, 4, 3, 3, 1, 1, 8, 7, 6, 3, 3, 1, 20, 20, 20, 20, 20, 20, 20, 15, 11, 8, 7, 1, 21, 17, 14, 13, 10, 6, 18, 18, 16, 15, 11, 11, 14, 13, 12, 10, 6, 5, 20, 17, 16, 14, 12, 11, 16, 15, 15, 15, 15, 15, 23, 23, 22, 20, 19, 18, 20, 16, 12, 8, 6, 5, 28, 23, 21, 17, 13, 12, 11, 10, 7, 5, 5, 3, 23, 21, 17, 15, 14, 9, 8, 8, 8, 8, 8, 8, 28, 27, 26, 23, 21, 18, 18, 18, 18, 18, 18, 18, 19, 17, 13, 12, 10, 6, 20, 16, 14, 11, 8, 4, 27, 27, 27, 26, 26, 26, 28, 21, 19, 16, 13, 9, 14, 14, 12, 12, 11, 9, 24, 24, 23, 23, 22, 21, 14, 12, 12, 10, 10, 9, 4, 4, 4, 4, 4, 4, 15, 15, 13, 10, 7, 6, 23, 22, 20, 18, 16, 15, 20, 19, 17, 16, 15, 14, 11, 11, 9, 8, 7, 7, 11, 10, 9, 9, 6, 6
 |19, 17, 12, 10, 6, 5, 27, 23, 18, 13, 10, 2, 18, 17, 17, 17, 16, 16, 24, 20, 17, 17, 14, 12, 18, 13, 12, 9, 5, 3, 24, 21, 21, 17, 15, 14, 30, 27, 23, 22, 21, 17, 14, 11, 11, 9, 9, 7, 22, 21, 18, 16, 15, 11, 25, 23, 23, 21, 20, 19, 23, 22, 22, 21, 18, 18, 29, 28, 28, 28, 28, 28, 18, 16, 15, 15, 13, 12, 19, 17, 16, 13, 10, 6, 9, 9, 8, 8, 8, 7, 27, 23, 21, 19, 18, 15, 7, 6, 6, 4, 4, 3, 27, 27, 27, 27, 27, 27, 22, 22, 19, 19, 18, 16, 21, 21, 20, 20, 20, 19, 10, 8, 8, 6, 4, 4, 18, 17, 17, 17, 15, 15, 20, 16, 13, 12, 10, 5, 14, 14, 11, 9, 8, 6, 29, 28, 25, 25, 24, 21, 29, 27, 24, 24, 22, 21, 14, 12, 10, 10, 8, 7, 29, 25, 24, 21, 21, 19, 30, 29, 29, 28, 28, 28, 27, 27, 25, 24, 23, 23, 28, 27, 27, 26, 26, 26, 26, 22, 17, 16, 12, 11, 22, 20, 17, 13, 10, 7, 22, 18, 18, 13, 10, 5, 18, 16, 11, 7, 6, 4, 18, 16, 15, 12, 12, 10, 30, 28, 27, 26, 26, 25, 21, 20, 20, 19, 19, 19, 22, 22, 22, 21, 20, 20, 11, 10, 9, 9, 9, 8, 21, 16, 16, 12, 9, 8, 6, 5, 5, 5, 4, 4, 30, 29, 28, 28, 28, 27, 20, 17, 16, 15, 11, 8, 29, 24, 16, 12, 9, 3, 8, 8, 7, 5, 3, 1, 2, 2, 2, 2, 2, 2, 20, 19, 18, 17, 17, 16, 28, 26, 24, 24, 22, 21, 11, 10, 10, 9, 9, 8
 |19, 19, 16, 15, 13, 11, 23, 17, 16, 10, 9, 5, 14, 12, 11, 10, 7, 6, 17, 16, 13, 12, 9, 8, 28, 24, 21, 18, 11, 10, 23, 21, 19, 18, 17, 16, 5, 4, 4, 3, 2, 2, 17, 16, 15, 13, 12, 12, 19, 19, 18, 16, 15, 12, 20, 19, 19, 19, 19, 19, 20, 18, 17, 17, 15, 14, 9, 9, 9, 8, 7, 7, 26, 22, 19, 15, 7, 5, 15, 14, 13, 12, 8, 8, 19, 19, 18, 18, 16, 16, 19, 19, 17, 17, 15, 14, 7, 7, 6, 7, 7, 7, 14, 14, 13, 12, 10, 8, 25, 25, 24, 24, 24, 23, 16, 13, 10, 9, 6, 2, 12, 11, 10, 9, 7, 7, 3, 3, 3, 3, 3, 3, 20, 18, 17, 16, 15, 15, 27, 27, 27, 27, 27, 27, 15, 15, 13, 12, 11, 10, 25, 24, 24, 24, 23, 23, 15, 14, 14, 14, 13, 13, 26, 26, 25, 22, 22, 20, 6, 5, 5, 5, 3, 3, 23, 17, 14, 9, 7, 2, 24, 22, 21, 21, 19, 18, 27, 23, 22, 18, 17, 15, 14, 11, 8, 7, 4, 4, 29, 23, 19, 17, 12, 10, 26, 24, 19, 13, 7, 4, 26, 26, 26, 25, 25, 25, 19, 15, 13, 8, 5, 3, 18, 14, 12, 11, 7, 7, 21, 18, 18, 16, 15, 15, 21, 20, 14, 11, 8, 5, 19, 18, 18, 17, 16, 16, 24, 21, 16, 13, 7, 5, 29, 28, 28, 27, 27, 26, 19, 17, 15, 11, 8, 6, 10, 8, 7, 7, 5, 4, 25, 24, 23, 23, 22, 21, 25, 19, 17, 13, 10, 7, 12, 9, 8, 7, 6, 4, 29, 25, 20, 19, 12, 8, 25, 24, 23, 22, 21, 21|];